\ENCODING=ISO-8859-1
\Problem name: ilog.cplex

Maximize
 obj: x4 + x10 + x13
Subject To
 c1:  x13 + x18 <= 1
 c2:  x2 + x9 <= 1
 c3:  x4 + x7 <= 1
 c4:  x10 + x15 <= 1
 c5:  x1  = 1
 c6:  x6 + x14  = 1
 c7:  x10 - x11  = 0
 c8:  x5 - x6  = 0
 c9:  x15 - x16  = 0
 c10: x17  = 0
 c11: x11 - x12  = 0
 c12: x18  = 0
 c13: x2 - x3  = 0
 c14: x16 - x17  = 0
 c15: x8  = 0
 c16: x12 - x13 - x18  = 0
 c17: x1 - x2 - x9  = 0
 c18: x3 - x4 - x7  = 0
 c19: x4 - x5  = 0
 c20: x13 - x14  = 0
 c21: x9 - x10 - x15  = 0
 c22: x7 - x8  = 0
Bounds
 0 <= x1 <= 1
 0 <= x2 <= 1
 0 <= x3 <= 1
 0 <= x4 <= 1
 0 <= x5 <= 1
 0 <= x6 <= 1
 0 <= x7 <= 1
 0 <= x8 <= 1
 0 <= x9 <= 1
 0 <= x10 <= 1
 0 <= x11 <= 1
 0 <= x12 <= 1
 0 <= x13 <= 1
 0 <= x14 <= 1
 0 <= x15 <= 1
 0 <= x16 <= 1
 0 <= x17 <= 1
 0 <= x18 <= 1
Binaries
 x1  x2  x3  x4  x5  x6  x7  x8  x9  x10  x11  x12  x13  x14  x15  x16  x17 
 x18 
End
